c Result of efficient AIG-to-CNF conversion using package CNF
p cnf 162 657
-2 3 106 143 0
-2 -97 106 143 0
2 -143 0
2 -106 0
2 -3 97 0
3 -4 71 82 0
3 4 71 -82 0
-3 -71 0
-3 -4 -82 0
-3 4 82 0
4 5 -59 0
-4 -5 0
-4 59 0
5 -6 -9 46 0
5 -6 9 -46 0
-5 6 0
-5 -9 -46 0
-5 9 46 0
-6 154 7 0
6 -154 0
6 -7 0
-7 155 8 0
7 -155 0
7 -8 0
-8 156 157 158 0
8 -156 0
8 -158 0
8 -157 0
9 -10 -30 0
9 -30 -44 0
9 -10 -44 0
-9 10 44 0
-9 30 44 0
-9 10 30 0
10 -11 -29 0
10 -11 -15 0
10 -15 -29 0
-10 15 29 0
-10 11 29 0
-10 11 15 0
11 -157 -12 0
-11 157 0
-11 12 0
12 158 -13 0
12 -158 13 0
-12 -158 -13 0
-12 158 13 0
13 159 -14 0
13 -159 14 0
-13 -159 -14 0
-13 159 14 0
14 160 -161 0
14 -160 161 0
-14 -160 -161 0
-14 160 161 0
-15 17 25 0
-15 -16 -23 -25 0
-15 16 23 -25 0
15 -17 25 0
15 -16 23 -25 0
15 16 -23 -25 0
16 -158 -13 0
-16 158 0
-16 13 0
17 18 -20 0
17 -18 20 0
-17 -18 -20 0
-17 18 20 0
-18 -159 -19 0
-18 159 19 0
18 159 -19 0
18 -159 19 0
19 -160 -161 0
-19 160 0
-19 161 0
20 21 -22 0
20 -21 22 0
-20 -21 -22 0
-20 21 22 0
21 -159 160 -161 0
21 -159 -160 161 0
-21 159 0
-21 -160 -161 0
-21 160 161 0
22 158 -159 0
22 -158 159 0
-22 -158 -159 0
-22 158 159 0
23 24 -17 0
23 -24 17 0
-23 -24 -17 0
-23 24 17 0
24 157 -158 0
24 -157 158 0
-24 -157 -158 0
-24 157 158 0
-25 154 26 0
25 -154 0
25 -26 0
-26 155 27 0
26 -155 0
26 -27 0
-27 156 28 0
27 -156 0
27 -28 0
-28 157 158 159 0
28 -157 0
28 -159 0
28 -158 0
29 156 -157 0
29 -156 157 0
-29 -156 -157 0
-29 156 157 0
30 -25 -31 32 0
30 -25 31 -32 0
-30 25 0
-30 -31 -32 0
-30 31 32 0
31 157 -158 -17 0
31 -157 158 -17 0
31 157 -158 -13 0
31 -157 -13 -17 0
-31 157 158 0
-31 -157 -158 13 0
-31 13 17 0
-31 -157 17 0
32 33 -35 0
32 -33 35 0
-32 -33 -35 0
-32 33 35 0
33 -156 34 0
33 156 -34 0
-33 156 34 0
-33 -156 -34 0
-34 157 158 0
34 -157 0
34 -158 0
35 36 -40 0
35 -36 40 0
-35 -36 -40 0
-35 36 40 0
36 158 -37 -38 0
36 -158 37 -38 0
-36 38 0
-36 158 37 0
-36 -158 -37 0
37 -159 -19 0
-37 159 0
-37 19 0
-38 160 161 28 39 0
38 -160 0
38 -39 0
38 -28 0
38 -161 0
-39 154 155 156 0
39 -154 0
39 -156 0
39 -155 0
40 41 -43 0
40 -41 43 0
-40 -41 -43 0
-40 41 43 0
41 -18 -42 0
-41 18 0
-41 42 0
-42 -158 -159 21 0
-42 158 159 21 0
42 -21 0
42 -158 159 0
42 158 -159 0
43 157 -159 0
43 -157 158 159 0
43 157 -158 0
-43 -157 -158 0
-43 -157 -159 0
-43 157 158 159 0
44 -155 45 0
44 155 -45 0
-44 155 45 0
-44 -155 -45 0
-45 156 157 0
45 -156 0
45 -157 0
46 47 -57 0
46 -47 57 0
-46 -47 -57 0
-46 47 57 0
47 -25 -48 49 0
47 -25 48 -49 0
-47 25 0
-47 -48 -49 0
-47 48 49 0
48 -31 -33 0
48 -33 -35 0
48 -31 -35 0
-48 31 35 0
-48 33 35 0
-48 31 33 0
49 50 -51 0
49 -50 51 0
-49 -50 -51 0
-49 50 51 0
50 -155 8 0
50 155 -8 0
-50 155 8 0
-50 -155 -8 0
51 52 -54 0
51 -52 54 0
-51 -52 -54 0
-51 52 54 0
52 157 -53 0
52 -157 53 0
-52 -157 -53 0
-52 157 53 0
53 -158 -159 -19 0
-53 158 0
-53 159 0
-53 19 0
54 55 -56 0
54 -55 56 0
-54 -55 -56 0
-54 55 56 0
-55 36 43 0
-55 41 43 0
-55 36 41 0
55 -36 -41 0
55 -41 -43 0
55 -36 -43 0
56 -156 28 0
56 156 -28 0
-56 156 28 0
-56 -156 -28 0
57 -154 58 0
57 154 -58 0
-57 154 58 0
-57 -154 -58 0
-58 155 156 157 0
58 -155 0
58 -157 0
58 -156 0
59 -39 60 0
-59 39 0
-59 -60 0
60 -61 -67 0
60 -67 -69 0
60 -61 -69 0
-60 61 69 0
-60 67 69 0
-60 61 67 0
61 -62 -64 0
61 -64 -65 0
61 -62 -65 0
-61 64 65 0
-61 62 64 0
-61 62 65 0
-62 15 6 0
-62 -11 -63 -6 0
-62 11 63 -6 0
62 -15 6 0
62 -11 63 -6 0
62 11 -63 -6 0
63 15 -29 0
63 -15 29 0
-63 -15 -29 0
-63 15 29 0
64 155 -156 0
64 -155 156 0
-64 -155 -156 0
-64 155 156 0
65 -156 -66 0
-65 156 0
-65 66 0
66 157 -12 0
66 -157 12 0
-66 -157 -12 0
-66 157 12 0
67 -6 -10 68 0
67 -6 10 -68 0
-67 6 0
-67 -10 -68 0
-67 10 68 0
68 30 -44 0
68 -30 44 0
-68 -30 -44 0
-68 30 44 0
69 70 -39 0
69 154 -39 0
-69 39 0
-69 -154 -70 0
-70 155 156 0
70 -155 0
70 -156 0
71 -72 81 0
-71 72 0
-71 -81 0
72 73 -76 0
-72 -73 0
-72 76 0
-73 67 75 0
-73 -61 -74 -75 0
-73 61 74 -75 0
73 -67 75 0
73 -61 74 -75 0
73 61 -74 -75 0
74 67 -69 0
74 -67 69 0
-74 -67 -69 0
-74 67 69 0
-75 154 58 0
75 -154 0
75 -58 0
76 -154 77 79 0
76 -155 77 79 0
76 -154 -155 79 0
76 -154 -155 77 0
-76 155 -77 0
-76 154 -79 0
-76 154 155 0
-76 155 -79 0
-76 154 -77 0
-76 -77 -79 0
77 -155 -78 0
-77 155 0
-77 78 0
78 156 -66 0
78 -156 66 0
-78 -156 -66 0
-78 156 66 0
-79 62 75 0
-79 65 -75 80 0
-79 -65 -75 -80 0
79 -62 75 0
79 65 -75 -80 0
79 -65 -75 80 0
80 62 -64 0
80 -62 64 0
-80 -62 -64 0
-80 62 64 0
-81 -5 -59 0
-81 5 59 0
81 5 -59 0
81 -5 59 0
-82 -83 -95 0
-82 83 95 0
82 83 -95 0
82 -83 95 0
83 -25 -84 85 0
83 -25 84 -85 0
-83 25 0
-83 -84 -85 0
-83 84 85 0
84 -48 -50 0
84 -50 -51 0
84 -48 -51 0
-84 48 51 0
-84 50 51 0
-84 48 50 0
85 86 -87 0
85 -86 87 0
-85 -86 -87 0
-85 86 87 0
86 -154 7 0
86 154 -7 0
-86 154 7 0
-86 -154 -7 0
87 88 -90 0
87 -88 90 0
-87 -88 -90 0
-87 88 90 0
88 -156 -38 89 0
88 156 -38 -89 0
-88 38 0
-88 -156 -89 0
-88 156 89 0
89 -157 -53 0
-89 157 0
-89 53 0
90 91 -94 0
90 -91 94 0
-90 -91 -94 0
-90 91 94 0
-91 92 93 0
-91 -157 -53 92 0
-91 157 53 92 0
91 -92 0
91 -157 53 -93 0
91 157 -53 -93 0
92 -55 -56 0
-92 55 0
-92 56 0
-93 55 56 0
93 -55 0
93 -56 0
94 -155 27 0
94 155 -27 0
-94 155 27 0
-94 -155 -27 0
95 -75 96 0
-95 75 0
-95 -96 0
96 -9 -47 0
96 -47 -57 0
96 -9 -57 0
-96 9 57 0
-96 47 57 0
-96 9 47 0
97 -154 98 0
-97 154 0
-97 -98 0
-98 99 105 0
98 -99 0
98 -105 0
-99 100 101 104 0
99 -100 0
99 -101 0
99 -104 0
-100 -73 -76 0
-100 73 76 0
100 73 -76 0
100 -73 76 0
-101 39 79 0
-101 -39 -77 -102 0
-101 -39 77 102 0
101 39 -79 0
101 -39 -77 102 0
101 -39 77 -102 0
102 -103 79 0
102 103 -79 0
-102 103 79 0
-102 -103 -79 0
103 154 -155 0
103 -154 155 0
-103 -154 -155 0
-103 154 155 0
104 155 -78 0
104 -155 78 0
-104 -155 -78 0
-104 155 78 0
-105 72 81 0
-105 -72 -81 0
105 -72 81 0
105 72 -81 0
-106 107 108 122 139 0
-106 -107 -108 122 139 0
106 -139 0
106 -107 108 0
106 -122 0
106 107 -108 0
107 -154 98 3 0
-107 154 0
-107 -98 0
-107 -3 0
108 109 -120 0
108 -109 120 0
-108 -109 -120 0
-108 109 120 0
109 110 -111 0
109 -110 111 0
-109 -110 -111 0
-109 110 111 0
110 83 -95 0
-110 -83 0
-110 95 0
111 112 -118 0
111 -112 118 0
-111 -112 -118 0
-111 112 118 0
112 113 -115 0
112 -113 115 0
-112 -113 -115 0
-112 113 115 0
-113 -155 -114 0
-113 155 114 0
113 155 -114 0
113 -155 114 0
114 -156 -89 0
-114 156 0
-114 89 0
115 116 -117 0
115 -116 117 0
-115 -116 -117 0
-115 116 117 0
-116 91 94 0
-116 88 94 0
-116 88 91 0
116 -88 -94 0
116 -88 -91 0
116 -91 -94 0
117 -154 26 0
117 154 -26 0
-117 154 26 0
-117 -154 -26 0
118 -6 119 0
-118 6 0
-118 -119 0
119 -84 -86 0
119 -86 -87 0
119 -84 -87 0
-119 84 87 0
-119 86 87 0
-119 84 86 0
120 -39 121 0
-120 39 0
-120 -121 0
121 -39 -5 0
121 -39 -82 0
121 -39 -60 0
-121 39 0
-121 5 60 82 0
-122 -3 123 0
-122 97 123 0
122 -123 0
122 3 -97 0
-123 124 126 -132 0
-123 -124 -126 133 0
-123 -124 -126 -132 0
-123 124 126 133 0
123 124 -126 0
123 -124 126 0
123 132 -133 0
-124 -101 -125 0
-124 101 125 0
124 101 -125 0
124 -101 125 0
125 -154 104 0
-125 154 0
-125 -104 0
126 154 -127 0
126 -154 -104 127 0
126 104 -127 0
-126 154 127 0
-126 104 127 0
-126 -154 -104 -127 0
127 77 -128 0
127 -77 128 0
-127 -77 -128 0
-127 77 128 0
128 65 -129 0
128 -65 129 0
-128 -65 -129 0
-128 65 129 0
129 11 -130 0
129 -11 130 0
-129 -11 -130 0
-129 11 130 0
130 -158 159 -131 0
130 158 -159 -131 0
130 159 -19 0
130 -158 -159 19 0
-130 158 -159 131 0
-130 158 159 19 0
-130 159 19 131 0
-130 -158 -159 -19 0
-131 160 161 0
131 -160 0
131 -161 0
132 -154 99 0
-132 154 0
-132 -99 0
133 -105 135 0
133 -105 134 0
133 154 -105 0
-133 105 0
-133 -154 -134 -135 0
134 -104 -127 0
-134 104 0
-134 127 0
-135 53 136 137 138 0
135 -138 0
135 -137 0
135 -53 0
135 -136 0
136 -11 -130 0
-136 11 0
-136 130 0
137 -65 -129 0
-137 65 0
-137 129 0
138 -77 -128 0
-138 77 0
-138 128 0
139 140 -141 0
139 -140 141 0
-139 -140 -141 0
-139 140 141 0
140 -154 -134 0
-140 154 0
-140 134 0
141 -135 142 0
141 135 -142 0
-141 135 142 0
-141 -135 -142 0
-142 100 -101 0
-142 -154 -100 101 104 0
-142 154 100 0
-142 100 -104 0
142 -100 -104 0
142 -154 100 101 104 0
142 -100 -101 0
142 154 -100 0
-143 144 151 152 0
143 -144 0
143 -152 0
143 -151 0
144 -6 112 119 145 0
-144 -145 0
-144 -119 0
-144 6 0
-144 -112 0
145 146 -150 0
145 -146 150 0
-145 -146 -150 0
-145 146 150 0
146 -38 147 -149 0
146 -38 -147 149 0
-146 38 0
-146 147 149 0
-146 -147 -149 0
-147 -155 114 0
-147 114 148 0
147 -114 0
147 155 -148 0
-148 156 160 28 0
148 -28 0
148 -160 0
148 -156 0
149 -154 -155 0
149 -154 148 0
149 154 155 -148 0
-149 154 148 0
-149 -154 155 -148 0
-149 154 -155 0
150 -154 -26 116 0
150 -154 113 116 0
150 -154 -26 113 0
150 -26 113 116 0
-150 154 26 0
-150 -113 -116 0
-150 26 -116 0
-150 26 -113 0
-150 154 -116 0
-150 154 -113 0
151 -75 83 96 111 0
-151 -111 0
-151 -96 0
-151 75 0
-151 -83 0
152 -156 109 121 0
152 -153 109 121 0
-152 -121 0
-152 -109 0
-152 156 153 0
-153 154 155 0
153 -154 0
153 -155 0
-162 0
2 0

